76
2
0 2 3 4 6 7 8 9 10 11 12 13 14 15 16 17 19 20 21 22 23 24 26 27 28 29 30 31 32 33 34 35 37 39 40 41 42 43 44 45 46 47 48 51 53 54 55 56 58 59 60 62 64 66 68 69 70 71 73 74 75
1 2 3 4 5 8 10 14 18 21 22 23 25 26 27 30 36 38 39 40 43 46 47 48 49 50 52 56 57 58 59 61 63 65 66 67 71 72
